============================[ Problem Statistics ]=============================|                                                                             ||  Number of variables:          4242                                         ||  Number of clauses:           10319                                         ||  Parse time:                   0.71 s                                       ||                                                                             |============================[ Search Statistics ]==============================| Conflicts |          ORIGINAL         |          LEARNT          | Progress ||           |    Vars  Clauses Literals |    Limit  Clauses Lit/Cl |          |===============================================================================|       100 |    1591     6524  1127085 |     2392      100     53 | 62.501 % ||       250 |    1591     6524  1127085 |     2631      250     75 | 62.495 % |===============================================================================restarts              : 3conflicts             : 384            (360 /sec)decisions             : 649            (0.00 % random) (608 /sec)propagations          : 12023          (11268 /sec)conflict literals     : 31669          (94.57 % deleted)CPU time              : 1.067 sSATISFIABLE